56
BRCA1_pLeu100Asp paired reference fragment
N  -26.765000 -14.661000  5.002000
C  -27.221000 -15.533000  6.086000
C  -26.853000 -17.004000  5.829000
C  -28.736000 -15.350000  6.275000
O  -26.481000 -17.715000  6.765000
C  -29.236000 -16.012000  7.567000
C  -30.713000 -15.756000  7.850000
N  -31.187000 -16.088000  9.031000
O  -31.471000 -15.259000  7.041000
N  -26.676000 -8.941000  12.581000
C  -27.890000 -8.617000  13.346000
C  -28.107000 -7.096000  13.453000
C  -27.799000 -9.228000  14.754000
O  -29.221000 -6.622000  13.236000
C  -27.986000 -10.754000  14.794000
C  -27.707000 -11.340000  16.180000
N  -27.914000 -12.620000  16.393000
O  -27.292000 -10.685000  17.118000
N  -31.227000 -5.876000  11.260000
C  -32.351000 -5.964000  12.196000
C  -33.028000 -7.342000  12.246000
O  -34.068000 -7.476000  12.889000
N  -32.472000 -8.362000  11.580000
C  -32.972000 -9.735000  11.622000
C  -32.264000 -10.517000  12.729000
C  -32.778000 -10.416000  10.255000
O  -31.037000 -10.649000  12.733000
C  -33.664000 -9.850000  9.131000
C  -33.194000 -10.409000  7.789000
C  -35.136000 -10.232000  9.310000
N  -33.038000 -11.098000  13.646000
C  -32.493000 -12.034000  14.624000
C  -31.956000 -13.281000  13.913000
C  -33.521000 -12.425000  15.693000
O  -32.685000 -14.053000  13.286000
C  -33.858000 -11.255000  16.631000
C  -34.641000 -11.694000  17.881000
O  -34.750000 -10.859000  18.805000
O  -35.105000 -12.858000  17.922000
N  -30.646000 -13.491000  14.015000
C  -29.999000 -14.666000  13.450000
C  -30.397000 -15.909000  14.269000
C  -28.492000 -14.401000  13.371000
O  -29.855000 -16.158000  15.344000
C  -27.714000 -15.505000  12.703000
C  -27.208000 -16.547000  13.497000
C  -27.489000 -15.489000  11.312000
C  -26.485000 -17.587000  12.902000
C  -26.766000 -16.540000  10.711000
O  -25.581000 -18.621000  10.961000
C  -26.268000 -17.592000  11.510000
N  -31.370000 -16.676000  13.765000
C  -32.145000 -17.673000  14.521000
C  -31.366000 -18.874000  15.113000
C  -33.295000 -18.137000  13.617000
O  -31.939000 -19.650000  15.872000
