74
BRCA1_pVal41Asp draft mutant fragment
N  -7.612000 -28.784000  20.351000
C  -7.117000 -29.686000  19.320000
C  -6.626000 -30.992000  19.940000
C  -6.034000 -29.025000  18.457000
O  -6.190000 -31.069000  21.095000
O  -4.897000 -28.686000  19.222000
N  -6.735000 -32.051000  19.151000
C  -6.266000 -33.398000  19.475000
C  -5.019000 -33.721000  18.658000
C  -7.377000 -34.428000  19.221000
O  -4.712000 -33.041000  17.690000
C  -8.637000 -34.142000  20.037000
O  -7.748000 -34.460000  17.866000
N  -4.497000 -35.564000  16.262000
C  -4.812000 -35.754000  14.845000
C  -5.559000 -34.527000  14.292000
C  -5.590000 -37.068000  14.660000
O  -6.431000 -34.677000  13.442000
S  -7.242000 -37.107000  15.417000
N  -5.307000 -33.356000  14.885000
C  -5.758000 -32.009000  14.507000
C  -7.276000 -31.790000  14.402000
C  -4.909000 -31.496000  13.335000
O  -7.745000 -30.730000  14.002000
C  -3.424000 -31.705000  13.662000
O  -3.025000 -31.311000  14.784000
O  -2.748000 -32.398000  12.874000
N  -8.065000 -32.757000  14.873000
C  -10.162917 -33.996825  15.038005
C  -10.773532 -35.278375  15.003669
O  -11.891637 -35.398536  14.558807
O  -10.171440 -36.241213  15.419516
C  -9.505000 -32.616000  15.075000
C  -9.796000 -31.872000  16.385000
O  -9.109000 -32.097000  17.391000
N  -10.816000 -31.010000  16.372000
C  -11.054000 -29.971000  17.386000
C  -12.442000 -30.129000  18.014000
C  -10.836000 -28.564000  16.773000
O  -13.408000 -30.493000  17.347000
C  -9.410000 -28.482000  16.177000
C  -11.055000 -27.449000  17.816000
C  -9.058000 -27.150000  15.526000
N  -12.527000 -29.891000  19.324000
C  -13.734000 -30.089000  20.128000
C  -13.777000 -29.088000  21.292000
C  -13.731000 -31.526000  20.686000
O  -12.735000 -28.581000  21.704000
C  -13.526000 -32.629000  19.659000
C  -14.629000 -33.203000  19.002000
C  -12.223000 -33.045000  19.318000
C  -14.432000 -34.198000  18.028000
C  -12.026000 -34.034000  18.339000
C  -13.132000 -34.610000  17.692000
N  -10.181000 -40.446000  19.548000
C  -10.811000 -39.306000  18.884000
C  -12.177000 -39.688000  18.282000
C  -9.867000 -38.802000  17.792000
O  -12.243000 -40.691000  17.570000
S  -10.537000 -37.283000  17.054000
N  -13.611000 -38.487000  15.693000
C  -13.465000 -38.451000  14.236000
C  -12.388000 -39.438000  13.752000
C  -13.243000 -36.992000  13.777000
O  -12.710000 -40.489000  13.204000
C  -14.417000 -36.037000  14.097000
C  -14.083000 -34.624000  13.637000
C  -15.722000 -36.447000  13.418000
N  -11.107000 -39.161000  14.019000
C  -9.993000 -39.955000  13.476000
C  -9.754000 -41.317000  14.168000
C  -8.715000 -39.100000  13.503000
O  -8.917000 -42.086000  13.712000
S  -7.922000 -39.004000  15.132000
