78
BRCA1_pLeu82Glu paired reference fragment
N  -17.553000 -24.525000  12.400000
C  -17.102000 -24.254000  13.773000
C  -18.013000 -24.860000  14.864000
C  -16.862000 -22.740000  13.948000
O  -17.895000 -24.505000  16.042000
C  -15.782000 -22.136000  13.027000
C  -15.597000 -20.655000  13.358000
C  -14.412000 -22.804000  13.191000
N  -5.872000 -20.117000  17.547000
C  -6.399000 -19.864000  16.190000
C  -7.902000 -20.142000  16.099000
C  -5.603000 -20.694000  15.153000
O  -8.624000 -19.377000  15.476000
C  -6.092000 -20.522000  13.695000
C  -5.230000 -21.305000  12.682000
N  -5.775000 -21.226000  11.305000
N  -4.080000 -22.306000  10.162000
N  -5.812000 -21.497000  9.032000
C  -5.224000 -21.678000  10.182000
N  -8.386000 -21.212000  16.730000
C  -9.809000 -21.558000  16.689000
C  -10.646000 -20.784000  17.711000
C  -9.993000 -23.076000  16.775000
O  -11.818000 -20.551000  17.438000
C  -9.801000 -23.746000  15.427000
C  -10.925000 -24.131000  14.670000
C  -8.509000 -23.914000  14.889000
C  -10.758000 -24.693000  13.392000
C  -8.342000 -24.487000  13.615000
C  -9.467000 -24.876000  12.867000
N  -10.072000 -20.328000  18.833000
C  -10.760000 -19.356000  19.700000
C  -11.014000 -18.060000  18.934000
C  -9.962000 -19.025000  20.965000
O  -12.148000 -17.602000  18.873000
O  -9.724000 -20.173000  21.761000
N  -9.982000 -17.545000  18.256000
C  -10.069000 -16.344000  17.425000
C  -11.104000 -16.505000  16.302000
C  -8.672000 -16.010000  16.873000
O  -11.961000 -15.646000  16.153000
C  -7.727000 -15.527000  17.987000
C  -6.271000 -15.443000  17.539000
N  -5.615000 -14.323000  17.748000
O  -5.675000 -16.385000  17.036000
N  -11.112000 -17.626000  15.568000
C  -12.121000 -17.870000  14.522000
C  -13.567000 -17.895000  15.057000
C  -11.800000 -19.185000  13.787000
O  -14.467000 -17.395000  14.384000
C  -10.587000 -19.112000  12.840000
C  -10.208000 -20.524000  12.386000
C  -10.870000 -18.270000  11.595000
N  -13.805000 -18.441000  16.256000
C  -15.137000 -18.415000  16.891000
C  -15.490000 -17.006000  17.384000
C  -15.233000 -19.467000  18.017000
O  -16.630000 -16.578000  17.222000
C  -16.538000 -19.375000  18.823000
C  -15.183000 -20.890000  17.438000
N  -14.530000 -16.261000  17.937000
C  -14.718000 -14.869000  18.365000
C  -15.018000 -13.935000  17.178000
C  -13.488000 -14.394000  19.165000
O  -15.964000 -13.153000  17.256000
C  -13.445000 -15.003000  20.581000
C  -12.101000 -14.793000  21.306000
O  -11.746000 -15.667000  22.135000
O  -11.434000 -13.763000  21.054000
N  -14.295000 -14.045000  16.058000
C  -14.584000 -13.259000  14.849000
C  -15.918000 -13.664000  14.198000
C  -13.444000 -13.336000  13.814000
O  -16.679000 -12.785000  13.796000
C  -12.056000 -12.827000  14.252000
C  -12.070000 -11.527000  15.066000
O  -11.377000 -11.449000  16.105000
O  -12.803000 -10.569000  14.739000
