55
 energy: -136.777409107810 gnorm: 0.000722693981 xtb: 6.7.1 (edcfbbe)
N          -28.99197604598324      -11.69407767645193        6.69019651173900
C          -28.13014698006316      -13.60354691068015        9.02110693084262
C          -28.95432602564331      -15.82493659802845        8.37285801529084
C          -30.34146525985674      -13.98371237218648        8.47163478557532
O          -28.60439453284757      -15.21564126042044       10.27101610674028
C          -29.20453987337593      -16.96662722444722       11.23777037170105
C          -30.72919068405925      -15.76226180915368        9.96395802802414
N          -33.86583504735161      -16.26892650374055       10.24232539023743
O          -29.69706736841315      -12.10343567777621        9.35743609171166
N          -25.09850945388571      -11.82559869973741       12.87365230884844
C          -30.04960935601312       -9.90135523972828       11.60512538206761
C          -29.24770378699984       -9.07390052892098       13.63489634974279
C          -29.10361351095900      -11.33889292163016       14.13295439419351
O          -30.71510777552350      -10.11483803877277       14.82733219257771
C          -27.91268885118557      -10.45579622018568       12.35363830506637
C          -28.93463146916277      -12.60019289123989       16.07717332390569
N          -29.14147726285381      -16.51197878253517       16.67513028160724
O          -27.25599887496852      -12.36580608632979       14.76819373971139
N          -30.24241904504968       -6.98631457883801       11.20390264719968
C          -31.50737236163110       -8.90499022216261       13.30051769152639
C          -32.35122620910484       -9.73215709642935       11.32010859477911
O          -33.19224682377615      -10.15370541409939       13.28597068210627
N          -30.34493682116311       -9.35678989338105        8.79039167937496
C          -33.46007551448968      -11.71578465857237       11.87850222286368
C          -31.31625313869644      -11.28974746164806       13.06428901050112
C          -31.30168031583494      -11.74248259194448       10.75507375308558
O          -29.57864120057695      -11.86531389331803       12.05289200522219
C          -33.30573392032352      -11.16588559252378        9.67786104984543
C          -31.64464519640511      -12.09858047569831        8.44766328496363
C          -32.06686740058770      -13.83517188943117        9.96639644595416
N          -36.01384605762625      -11.63756557919436       13.25597083685978
C          -33.15769226274325      -12.14426564481612       14.17359648500393
C          -34.04042364605137      -14.05405216996995       13.19213445365492
O          -32.97451878620593      -13.03463673171768       16.09493489266792
O          -33.85073315315083      -13.67353721408402       11.12386820540164
C          -31.06858460539897      -12.16428452631076       15.24198118512340
C          -31.97664160242527      -13.45101680197433       12.26260135058873
O          -30.74008374084115      -15.17947990618399       11.93344132668192
N          -31.30744229172349      -13.54874265892560       17.98519082388840
C          -29.84891613714882      -13.59124420823770       10.89083403478157
C          -30.03594095639306      -13.37876422399391       13.48166338612249
C          -27.83222436125094      -12.81179806382799       12.76333290913627
O          -30.12632921151423      -14.20067288640134       15.49583033506094
C          -28.67527543391751      -14.98147105240474       12.42083679196831
C          -28.18471332136313      -14.30247057316769       14.63639076290278
C          -28.01849743025476      -11.90866603833997       10.58669789228325
C          -27.62928182001076      -16.47186051156850       13.88174688570436
C          -26.96690510384843      -14.00932905768961       10.96763348508244
O          -27.07474575921844      -16.11802748833150       11.53145974993906
C          -26.44221766720466      -14.68116815172756       13.13424785675886
N          -31.77367754557580      -18.38537723483006       11.95847446785337
C          -32.05317008029306      -14.17420912453490       14.54074470474882
C          -30.36002215989460      -15.67569603354184       13.96405092166816
C          -32.48086404593413      -15.72370984195456       12.88866667653572
O          -29.44333871321849      -17.41858006626110       13.28371900258990
