55
BRCA1_pLeu4Asp draft mutant fragment
N  -32.248000 -0.144000 -0.586000
C  -33.031000 -1.354000 -0.371000
C  -32.094000 -2.507000 -0.723000
C  -34.324000 -1.312000 -1.197000
O  -31.706000 -2.670000 -1.882000
C  -35.118000 -0.050000 -0.851000
O  -35.316000  0.196000  0.359000
O  -35.360000  0.751000 -1.781000
N  -31.625000 -3.238000  0.291000
C  -31.001000 -4.528000  0.040000
C  -32.134000 -5.426000 -0.453000
C  -30.314000 -5.109000  1.294000
O  -32.986000 -5.835000  0.330000
C  -28.886000 -4.593000  1.551000
C  -28.862000 -3.176000  2.128000
C  -28.164000 -5.520000  2.529000
N  -32.160000 -5.696000 -1.758000
C  -32.611356 -6.963195 -3.796276
C  -32.224667 -7.192619 -5.143212
O  -33.047867 -7.559459 -5.949606
O  -31.074688 -7.019657 -5.475074
C  -33.028000 -6.716000 -2.345000
C  -32.875000 -7.997000 -1.524000
O  -31.757000 -8.509000 -1.459000
N  -33.953000 -8.475000 -0.890000
C  -33.893000 -9.430000  0.228000
C  -33.026000 -10.678000 -0.041000
C  -35.332000 -9.819000  0.589000
O  -32.318000 -11.135000  0.851000
N  -32.985000 -11.126000 -1.299000
C  -32.078000 -12.146000 -1.843000
C  -30.616000 -12.006000 -1.354000
C  -32.131000 -12.038000 -3.385000
O  -30.000000 -12.984000 -0.949000
C  -33.532000 -12.185000 -4.020000
C  -33.470000 -11.865000 -5.514000
C  -34.103000 -13.589000 -3.843000
N  -30.072000 -10.779000 -1.309000
C  -28.701000 -10.486000 -0.836000
C  -28.500000 -10.746000  0.658000
C  -28.350000 -9.013000 -1.121000
O  -27.379000 -10.994000  1.087000
C  -28.141000 -8.674000 -2.602000
C  -26.922000 -9.404000 -3.174000
N  -26.575000 -8.909000 -4.521000
N  -24.292000 -8.902000 -4.275000
N  -25.196000 -8.398000 -6.252000
C  -25.360000 -8.735000 -5.003000
N  -29.559000 -10.634000  1.456000
C  -29.511000 -10.867000  2.906000
C  -29.548000 -12.368000  3.189000
C  -30.651000 -10.113000  3.620000
O  -28.785000 -12.850000  4.022000
C  -30.556000 -10.270000  5.137000
C  -30.603000 -8.607000  3.309000
