78
BRCA1_pVal11Asp draft mutant fragment
N  -30.072000 -10.779000 -1.309000
C  -28.701000 -10.486000 -0.836000
C  -28.500000 -10.746000  0.658000
C  -28.350000 -9.013000 -1.121000
O  -27.379000 -10.994000  1.087000
C  -28.141000 -8.674000 -2.602000
C  -26.922000 -9.404000 -3.174000
N  -26.575000 -8.909000 -4.521000
N  -24.292000 -8.902000 -4.275000
N  -25.196000 -8.398000 -6.252000
C  -25.360000 -8.735000 -5.003000
N  -29.559000 -10.634000  1.456000
C  -29.511000 -10.867000  2.906000
C  -29.548000 -12.368000  3.189000
C  -30.651000 -10.113000  3.620000
O  -28.785000 -12.850000  4.022000
C  -30.556000 -10.270000  5.137000
C  -30.603000 -8.607000  3.309000
N  -28.475000 -14.722000  0.937000
C  -27.120000 -15.126000  0.512000
C  -26.105000 -15.030000  1.668000
C  -26.641000 -14.229000 -0.648000
O  -25.418000 -16.004000  1.985000
C  -27.242000 -14.571000 -2.023000
C  -26.939000 -13.500000 -3.096000
O  -27.480000 -13.616000 -4.218000
O  -26.182000 -12.535000 -2.816000
N  -26.039000 -13.877000  2.345000
C  -25.053421 -12.169667  3.835367
C  -24.999054 -10.792051  4.175394
O  -23.957930 -10.308620  4.555993
O  -25.994233 -10.111300  4.082142
C  -25.112000 -13.654000  3.469000
C  -25.477000 -14.527000  4.674000
O  -24.593000 -15.140000  5.273000
N  -26.765000 -14.661000  5.002000
C  -27.221000 -15.533000  6.086000
C  -26.853000 -17.004000  5.829000
C  -28.736000 -15.350000  6.275000
O  -26.481000 -17.715000  6.765000
C  -29.236000 -16.012000  7.567000
C  -30.713000 -15.756000  7.850000
N  -31.187000 -16.088000  9.031000
O  -31.471000 -15.259000  7.041000
N  -26.900000 -17.465000  4.577000
C  -26.475000 -18.811000  4.192000
C  -24.955000 -19.013000  4.330000
C  -26.989000 -19.108000  2.773000
O  -24.532000 -20.056000  4.834000
C  -28.458000 -19.500000  2.778000
N  -29.260000 -18.948000  1.903000
O  -28.884000 -20.330000  3.565000
N  -24.135000 -18.014000  3.980000
C  -22.675000 -18.057000  4.202000
C  -22.342000 -18.121000  5.697000
C  -21.967000 -16.871000  3.513000
O  -21.569000 -18.986000  6.112000
C  -20.474000 -16.789000  3.859000
C  -22.067000 -17.000000  1.987000
N  -22.970000 -17.286000  6.532000
C  -22.747000 -17.301000  7.990000
C  -23.198000 -18.648000  8.598000
C  -23.416000 -16.072000  8.653000
O  -22.481000 -19.217000  9.423000
C  -22.842000 -14.739000  8.106000
C  -23.210000 -16.083000  10.178000
C  -23.636000 -13.494000  8.532000
N  -24.018000 -8.516000  11.525000
C  -25.137000 -8.853000  10.643000
C  -26.503000 -8.593000  11.300000
C  -24.992000 -10.316000  10.201000
O  -27.389000 -8.030000  10.658000
C  -26.093000 -10.797000  9.276000
C  -27.213000 -11.472000  9.800000
C  -26.008000 -10.555000  7.893000
C  -28.237000 -11.912000  8.942000
C  -27.029000 -11.003000  7.034000
C  -28.139000 -11.685000  7.558000
