56
 energy: -136.044389612696 gnorm: 0.002901903906 xtb: 6.7.1 (edcfbbe)
N          -30.84048291056795       -0.68391858997750       -0.34661046756883
C          -34.12824859938970       -4.83519708641331       -0.76918225292029
C          -31.84895774683513       -5.00203231912853       -0.11872038105657
C          -32.42473911736135       -4.59760263788818       -2.43332873681168
O          -30.43026794753954       -4.59382680087693       -1.68448143030898
C          -32.98271957465001       -2.94950762742126       -0.12343631710761
O          -31.65189948707336       -3.59004881304402        1.50785958333348
O          -31.76472270024297       -2.65214126857620       -1.82613696571649
N          -34.39871485082089       -4.16345728262514        2.31334115690046
C          -30.06102192841001       -3.51245676340362        0.12015171193403
C          -31.27539806895729       -6.57641412444767       -1.81883845701786
C          -31.20018932158991       -7.22143583146346        0.38250460845902
O          -33.25449284550264       -6.57421253604268        0.00026258715662
C          -29.39285816559364       -5.71006897158894       -0.17422976919862
C          -30.52304394948216       -5.44118583612944        1.79348283024555
C          -29.00468373269547       -7.45374974014629        1.30155301866029
N          -30.09513652993368       -3.29707717512926       -4.01786797600172
C          -32.41357154625751       -8.32894143010724       -3.03955161366575
C          -31.85417320722848       -6.27274192136961       -4.01829119648401
C          -31.40123048937438       -8.76145191165619       -5.05440100875303
O          -34.13427457173066       -9.30347509494624       -2.02407817261344
N          -29.23014732790758       -6.09421499611693       -5.64690929033524
C          -33.64683163138485       -6.54305418943072       -2.20591154506095
C          -33.04946235350265       -8.24659863636706       -0.79349018730540
O          -31.30402576799767       -8.66825856674124       -1.30029904376260
N          -35.57071689900371       -7.29700783779861        1.17664051241595
C          -32.79025410422007       -8.60255123024291        1.44148346346268
C          -32.38541813111107      -10.45424600253079       -1.64731135099609
C          -34.07705884784156      -10.03530760909900        0.01634071669052
O          -31.81321856413222      -10.13246964161641        0.35919485055337
N          -36.32646373851527       -7.65267907509944       -1.92929138514289
C          -32.89623859394013      -11.94696408520086        0.15520766768781
C          -29.98151494738286      -10.25346383869041       -0.97811758605827
C          -30.72738702145446      -10.00771050714348       -3.22379235998422
O          -29.03090135330180      -12.14799427443874       -0.25987245359467
C          -31.72143820263260      -12.15883713526862       -3.16938526108448
C          -32.99518647960056      -10.39393656736897       -3.88306688435121
C          -30.99586795091614      -12.34954021472115       -1.02361066839994
N          -28.37537514753319       -9.40571262896764       -5.54289377785473
C          -29.30416538251162      -11.76833037846773       -2.62100151168283
C          -27.62507016456898      -10.94330421939659       -1.25085961703993
C          -29.39180761975384       -7.90007139792356       -1.05228242698359
O          -27.32039138859394       -8.26109358834305       -1.13708017324229
C          -30.07391141521637       -7.81265902372949       -3.38765401489991
C          -28.53716891402029       -9.40975089171677       -2.63283518649343
N          -30.48841035529833      -11.76009060103675       -5.81679358055630
N          -25.07439313611775       -9.23035294527395       -1.36260623610633
N          -26.74968172977670       -7.23629737820462       -3.76714573997429
C          -29.03398057880734       -5.99419351381161       -2.43549673761659
N          -32.24768384807374      -10.66343778909666        3.30803414272173
C          -28.19452237033044       -9.43916030214748        0.37723612304592
C          -30.16118214433699      -11.15846241783964        1.21066620642020
C          -32.60021190484046       -6.34897078768833        2.03428268262354
O          -30.25228327232588       -9.07629588567347        0.80391705419224
C          -29.19914015073875       -9.44410674633583        2.52422680462393
C          -30.91417727107453       -7.90605533409363        2.61220104263891
