80
BRCA1_pLeu22Glu draft mutant fragment
N  -20.361000 -21.142000  7.742000
C  -19.244000 -20.886000  8.664000
C  -19.530000 -21.408000  10.081000
C  -18.934000 -19.382000  8.713000
O  -18.655000 -22.015000  10.699000
C  -18.402000 -18.840000  7.381000
S  -18.149000 -17.044000  7.364000
C  -16.629000 -16.906000  8.345000
N  -20.762000 -21.244000  10.578000
C  -21.192000 -21.793000  11.867000
C  -21.055000 -23.318000  11.911000
C  -22.623000 -21.324000  12.172000
O  -20.433000 -23.831000  12.839000
C  -23.159000 -21.885000  13.501000
C  -24.441000 -21.201000  13.964000
N  -24.808000 -21.352000  15.220000
O  -25.118000 -20.503000  13.224000
N  -19.078000 -25.257000  10.177000
C  -17.641000 -25.592000  10.166000
C  -17.011000 -25.423000  11.566000
C  -16.928000 -24.763000  9.068000
O  -16.064000 -26.132000  11.908000
C  -17.434000 -25.183000  7.665000
C  -15.396000 -24.921000  9.127000
C  -17.090000 -24.183000  6.553000
N  -17.553000 -24.525000  12.400000
C  -16.864001 -22.752621  13.946541
C  -16.643112 -21.359184  14.107606
C  -16.425335 -19.985373  14.266401
O  -15.488647 -19.598708  14.926406
O  -17.175357 -19.194485  13.742507
C  -17.102000 -24.254000  13.773000
C  -18.013000 -24.860000  14.864000
O  -17.895000 -24.505000  16.042000
N  -18.893000 -25.797000  14.506000
C  -19.673000 -26.608000  15.444000
C  -18.841000 -27.762000  16.024000
C  -20.945000 -27.155000  14.778000
O  -18.047000 -28.418000  15.352000
C  -22.123000 -26.173000  14.863000
C  -23.296000 -26.615000  13.973000
O  -23.913000 -25.724000  13.346000
O  -23.562000 -27.839000  13.921000
N  -19.039000 -28.057000  17.308000
C  -18.352000 -29.148000  17.987000
C  -19.027000 -30.501000  17.695000
C  -18.366000 -28.846000  19.481000
O  -20.155000 -30.708000  18.161000
S  -17.623000 -30.201000  20.447000
N  -21.547000 -24.212000  18.659000
C  -20.291000 -23.491000  18.393000
C  -19.214000 -23.830000  19.443000
C  -20.561000 -21.972000  18.374000
O  -19.509000 -23.921000  20.640000
C  -21.117000 -21.450000  17.036000
C  -21.663000 -20.034000  17.215000
C  -20.026000 -21.408000  15.963000
N  -17.967000 -24.039000  19.006000
C  -16.921000 -24.630000  19.856000
C  -16.532000 -23.721000  21.042000
C  -15.700000 -25.099000  19.028000
O  -15.762000 -22.771000  20.923000
C  -16.060000 -26.260000  18.072000
C  -14.595000 -25.616000  19.968000
C  -15.127000 -26.361000  16.859000
N  -13.805000 -18.441000  16.256000
C  -15.137000 -18.415000  16.891000
C  -15.490000 -17.006000  17.384000
C  -15.233000 -19.467000  18.017000
O  -16.630000 -16.578000  17.222000
C  -16.538000 -19.375000  18.823000
C  -15.183000 -20.890000  17.438000
N  -16.274000 -14.958000  14.150000
C  -17.593000 -15.372000  13.646000
C  -18.734000 -14.809000  14.511000
C  -17.673000 -16.906000  13.525000
O  -19.743000 -14.359000  13.970000
C  -19.045000 -17.405000  13.019000
C  -19.399000 -16.889000  11.621000
C  -19.083000 -18.928000  12.965000
