78
BRCA1_pLeu30His AlphaFold reference fragment
N  -20.762000 -21.244000  10.578000
C  -21.192000 -21.793000  11.867000
C  -21.055000 -23.318000  11.911000
C  -22.623000 -21.324000  12.172000
O  -20.433000 -23.831000  12.839000
C  -23.159000 -21.885000  13.501000
C  -24.441000 -21.201000  13.964000
N  -24.808000 -21.352000  15.220000
O  -25.118000 -20.503000  13.224000
N  -17.553000 -24.525000  12.400000
C  -17.102000 -24.254000  13.773000
C  -18.013000 -24.860000  14.864000
C  -16.862000 -22.740000  13.948000
O  -17.895000 -24.505000  16.042000
C  -15.782000 -22.136000  13.027000
C  -15.597000 -20.655000  13.358000
C  -14.412000 -22.804000  13.191000
N  -18.893000 -25.797000  14.506000
C  -19.673000 -26.608000  15.444000
C  -18.841000 -27.762000  16.024000
C  -20.945000 -27.155000  14.778000
O  -18.047000 -28.418000  15.352000
C  -22.123000 -26.173000  14.863000
C  -23.296000 -26.615000  13.973000
O  -23.913000 -25.724000  13.346000
O  -23.562000 -27.839000  13.921000
N  -22.975000 -27.518000  19.111000
C  -22.939000 -26.093000  19.441000
C  -21.611000 -25.524000  18.917000
C  -22.991000 -25.868000  20.966000
O  -20.626000 -26.269000  18.830000
C  -24.178000 -26.487000  21.728000
C  -24.104000 -26.221000  23.246000
O  -25.050000 -26.573000  23.981000
O  -23.085000 -25.665000  23.727000
N  -21.547000 -24.212000  18.659000
C  -20.291000 -23.491000  18.393000
C  -19.214000 -23.830000  19.443000
C  -20.561000 -21.972000  18.374000
O  -19.509000 -23.921000  20.640000
C  -21.117000 -21.450000  17.036000
C  -21.663000 -20.034000  17.215000
C  -20.026000 -21.408000  15.963000
N  -17.967000 -24.039000  19.006000
C  -16.921000 -24.630000  19.856000
C  -16.532000 -23.721000  21.042000
C  -15.700000 -25.099000  19.028000
O  -15.762000 -22.771000  20.923000
C  -16.060000 -26.260000  18.072000
C  -14.595000 -25.616000  19.968000
C  -15.127000 -26.361000  16.859000
N  -17.006000 -24.099000  22.234000
C  -16.673000 -23.507000  23.540000
C  -15.327000 -24.032000  24.049000
C  -17.814000 -23.817000  24.532000
O  -15.218000 -25.212000  24.385000
C  -19.099000 -23.063000  24.159000
C  -20.358000 -23.528000  24.908000
C  -21.566000 -22.743000  24.370000
N  -22.863000 -23.268000  24.855000
N  -13.805000 -18.441000  16.256000
C  -15.137000 -18.415000  16.891000
C  -15.490000 -17.006000  17.384000
C  -15.233000 -19.467000  18.017000
O  -16.630000 -16.578000  17.222000
C  -16.538000 -19.375000  18.823000
C  -15.183000 -20.890000  17.438000
N  -24.961000 -16.953000  24.309000
C  -23.860000 -16.550000  25.168000
C  -24.235000 -15.223000  25.830000
C  -22.552000 -16.449000  24.372000
O  -23.639000 -14.182000  25.563000
C  -21.941000 -17.767000  23.951000
C  -21.009000 -18.407000  24.789000
C  -22.208000 -18.290000  22.673000
C  -20.302000 -19.529000  24.325000
C  -21.518000 -19.425000  22.216000
C  -20.544000 -20.026000  23.029000
